data/lp_files/pEFS/56_3.lp
\ Model foo
\ LP format - for model browsing. Use MPS format to capture full model detail.
Minimize
  z
Subject To
 allocateEach[1]: x[1,1] + x[2,1] + x[3,1] = 1
 allocateEach[2]: x[1,2] + x[2,2] + x[3,2] = 1
 allocateEach[3]: x[1,3] + x[2,3] + x[3,3] = 1
 allocateEach[4]: x[1,4] + x[2,4] + x[3,4] = 1
 allocateEach[5]: x[1,5] + x[2,5] + x[3,5] = 1
 allocateEach[6]: x[1,6] + x[2,6] + x[3,6] = 1
 allocateEach[7]: x[1,7] + x[2,7] + x[3,7] = 1
 allocateEach[8]: x[1,8] + x[2,8] + x[3,8] = 1
 allocateEach[9]: x[1,9] + x[2,9] + x[3,9] = 1
 allocateEach[10]: x[1,10] + x[2,10] + x[3,10] = 1
 allocateEach[11]: x[1,11] + x[2,11] + x[3,11] = 1
 allocateEach[12]: x[1,12] + x[2,12] + x[3,12] = 1
 allocateEach[13]: x[1,13] + x[2,13] + x[3,13] = 1
 allocateEach[14]: x[1,14] + x[2,14] + x[3,14] = 1
 allocateEach[15]: x[1,15] + x[2,15] + x[3,15] = 1
 allocateEach[16]: x[1,16] + x[2,16] + x[3,16] = 1
 allocateAllCash: cashProportion[1] + cashProportion[2] + cashProportion[3]
   = 1
 findWorstP[1,2]: z + 0.021982853374368 cashProportion[1]
   - 0.021982853374368 cashProportion[2] + 0.0789184436139811 x[1,1]
   + 0.1077929215212135 x[1,2] + 0.024609804352605 x[1,3]
   + 0.0674653770059354 x[1,4] + 0.0147614860408881 x[1,5]
   + 0.0315124203121565 x[1,6] + 0.0537151022202682 x[1,7]
   + 0.0647944603209497 x[1,8] + 0.0433501868542537 x[1,9]
   + 0.0863596394812047 x[1,10] + 0.1020993624972521 x[1,11]
   + 0.0220817762145527 x[1,12] + 0.0753242470872719 x[1,13]
   + 0.0380962848977797 x[1,14] + 0.0620356122224665 x[1,15]
   + 0.1051000219828534 x[1,16] - 0.0789184436139811 x[2,1]
   - 0.1077929215212135 x[2,2] - 0.024609804352605 x[2,3]
   - 0.0674653770059354 x[2,4] - 0.0147614860408881 x[2,5]
   - 0.0315124203121565 x[2,6] - 0.0537151022202682 x[2,7]
   - 0.0647944603209497 x[2,8] - 0.0433501868542537 x[2,9]
   - 0.0863596394812047 x[2,10] - 0.1020993624972521 x[2,11]
   - 0.0220817762145527 x[2,12] - 0.0753242470872719 x[2,13]
   - 0.0380962848977797 x[2,14] - 0.0620356122224665 x[2,15]
   - 0.1051000219828534 x[2,16] >= 0
 findWorstP[1,3]: z + 0.021982853374368 cashProportion[1]
   - 0.021982853374368 cashProportion[3] + 0.0789184436139811 x[1,1]
   + 0.1077929215212135 x[1,2] + 0.024609804352605 x[1,3]
   + 0.0674653770059354 x[1,4] + 0.0147614860408881 x[1,5]
   + 0.0315124203121565 x[1,6] + 0.0537151022202682 x[1,7]
   + 0.0647944603209497 x[1,8] + 0.0433501868542537 x[1,9]
   + 0.0863596394812047 x[1,10] + 0.1020993624972521 x[1,11]
   + 0.0220817762145527 x[1,12] + 0.0753242470872719 x[1,13]
   + 0.0380962848977797 x[1,14] + 0.0620356122224665 x[1,15]
   + 0.1051000219828534 x[1,16] - 0.0789184436139811 x[3,1]
   - 0.1077929215212135 x[3,2] - 0.024609804352605 x[3,3]
   - 0.0674653770059354 x[3,4] - 0.0147614860408881 x[3,5]
   - 0.0315124203121565 x[3,6] - 0.0537151022202682 x[3,7]
   - 0.0647944603209497 x[3,8] - 0.0433501868542537 x[3,9]
   - 0.0863596394812047 x[3,10] - 0.1020993624972521 x[3,11]
   - 0.0220817762145527 x[3,12] - 0.0753242470872719 x[3,13]
   - 0.0380962848977797 x[3,14] - 0.0620356122224665 x[3,15]
   - 0.1051000219828534 x[3,16] >= 0
 findWorstP[2,1]: z - 0.0200664198497025 cashProportion[1]
   + 0.0200664198497025 cashProportion[2] - 0.0663596504429662 x[1,1]
   - 0.0687074215653814 x[1,2] - 0.0747674803599916 x[1,3]
   - 0.0821117900249827 x[1,4] - 0.0228054861591869 x[1,5]
   - 0.0786804322306836 x[1,6] - 0.0868073322698131 x[1,7]
   - 0.0469754888681536 x[1,8] - 0.0842889965786754 x[1,9]
   - 0.0326580983053908 x[1,10] - 0.0434638653944557 x[1,11]
   - 0.0620253037554305 x[1,12] - 0.0338018842368239 x[1,13]
   - 0.0659081559963479 x[1,14] - 0.0943623393432261 x[1,15]
   - 0.0362098546187882 x[1,16] + 0.0663596504429662 x[2,1]
   + 0.0687074215653814 x[2,2] + 0.0747674803599916 x[2,3]
   + 0.0821117900249827 x[2,4] + 0.0228054861591869 x[2,5]
   + 0.0786804322306836 x[2,6] + 0.0868073322698131 x[2,7]
   + 0.0469754888681536 x[2,8] + 0.0842889965786754 x[2,9]
   + 0.0326580983053908 x[2,10] + 0.0434638653944557 x[2,11]
   + 0.0620253037554305 x[2,12] + 0.0338018842368239 x[2,13]
   + 0.0659081559963479 x[2,14] + 0.0943623393432261 x[2,15]
   + 0.0362098546187882 x[2,16] >= 0
 findWorstP[2,3]: z + 0.0200664198497025 cashProportion[2]
   - 0.0200664198497025 cashProportion[3] + 0.0663596504429662 x[2,1]
   + 0.0687074215653814 x[2,2] + 0.0747674803599916 x[2,3]
   + 0.0821117900249827 x[2,4] + 0.0228054861591869 x[2,5]
   + 0.0786804322306836 x[2,6] + 0.0868073322698131 x[2,7]
   + 0.0469754888681536 x[2,8] + 0.0842889965786754 x[2,9]
   + 0.0326580983053908 x[2,10] + 0.0434638653944557 x[2,11]
   + 0.0620253037554305 x[2,12] + 0.0338018842368239 x[2,13]
   + 0.0659081559963479 x[2,14] + 0.0943623393432261 x[2,15]
   + 0.0362098546187882 x[2,16] - 0.0663596504429662 x[3,1]
   - 0.0687074215653814 x[3,2] - 0.0747674803599916 x[3,3]
   - 0.0821117900249827 x[3,4] - 0.0228054861591869 x[3,5]
   - 0.0786804322306836 x[3,6] - 0.0868073322698131 x[3,7]
   - 0.0469754888681536 x[3,8] - 0.0842889965786754 x[3,9]
   - 0.0326580983053908 x[3,10] - 0.0434638653944557 x[3,11]
   - 0.0620253037554305 x[3,12] - 0.0338018842368239 x[3,13]
   - 0.0659081559963479 x[3,14] - 0.0943623393432261 x[3,15]
   - 0.0362098546187882 x[3,16] >= 0
 findWorstP[3,1]: z - 0.0239357564297426 cashProportion[1]
   + 0.0239357564297426 cashProportion[3] - 0.0725492777385497 x[1,1]
   - 0.0396256447694388 x[1,2] - 0.0296204985818064 x[1,3]
   - 0.0912550713883936 x[1,4] - 0.0937443900570868 x[1,5]
   - 0.0119798460930862 x[1,6] - 0.0370645188314564 x[1,7]
   - 0.0721184341228144 x[1,8] - 0.1019902581471331 x[1,9]
   - 0.1037854398793638 x[1,10] - 0.0149957514032337 x[1,11]
   - 0.0713524899170626 x[1,12] - 0.0264011393420061 x[1,13]
   - 0.0646385102385198 x[1,14] - 0.1062627906698422 x[1,15]
   - 0.038680182390464 x[1,16] + 0.0725492777385497 x[3,1]
   + 0.0396256447694388 x[3,2] + 0.0296204985818064 x[3,3]
   + 0.0912550713883936 x[3,4] + 0.0937443900570868 x[3,5]
   + 0.0119798460930862 x[3,6] + 0.0370645188314564 x[3,7]
   + 0.0721184341228144 x[3,8] + 0.1019902581471331 x[3,9]
   + 0.1037854398793638 x[3,10] + 0.0149957514032337 x[3,11]
   + 0.0713524899170626 x[3,12] + 0.0264011393420061 x[3,13]
   + 0.0646385102385198 x[3,14] + 0.1062627906698422 x[3,15]
   + 0.038680182390464 x[3,16] >= 0
 findWorstP[3,2]: z - 0.0239357564297426 cashProportion[2]
   + 0.0239357564297426 cashProportion[3] - 0.0725492777385497 x[2,1]
   - 0.0396256447694388 x[2,2] - 0.0296204985818064 x[2,3]
   - 0.0912550713883936 x[2,4] - 0.0937443900570868 x[2,5]
   - 0.0119798460930862 x[2,6] - 0.0370645188314564 x[2,7]
   - 0.0721184341228144 x[2,8] - 0.1019902581471331 x[2,9]
   - 0.1037854398793638 x[2,10] - 0.0149957514032337 x[2,11]
   - 0.0713524899170626 x[2,12] - 0.0264011393420061 x[2,13]
   - 0.0646385102385198 x[2,14] - 0.1062627906698422 x[2,15]
   - 0.038680182390464 x[2,16] + 0.0725492777385497 x[3,1]
   + 0.0396256447694388 x[3,2] + 0.0296204985818064 x[3,3]
   + 0.0912550713883936 x[3,4] + 0.0937443900570868 x[3,5]
   + 0.0119798460930862 x[3,6] + 0.0370645188314564 x[3,7]
   + 0.0721184341228144 x[3,8] + 0.1019902581471331 x[3,9]
   + 0.1037854398793638 x[3,10] + 0.0149957514032337 x[3,11]
   + 0.0713524899170626 x[3,12] + 0.0264011393420061 x[3,13]
   + 0.0646385102385198 x[3,14] + 0.1062627906698422 x[3,15]
   + 0.038680182390464 x[3,16] >= 0
Bounds
 z <= 1
 -infinity <= cashProportion[1] <= 1
 -infinity <= cashProportion[2] <= 1
 -infinity <= cashProportion[3] <= 1
Binaries
 x[1,1] x[1,2] x[1,3] x[1,4] x[1,5] x[1,6] x[1,7] x[1,8] x[1,9] x[1,10]
 x[1,11] x[1,12] x[1,13] x[1,14] x[1,15] x[1,16] x[2,1] x[2,2] x[2,3]
 x[2,4] x[2,5] x[2,6] x[2,7] x[2,8] x[2,9] x[2,10] x[2,11] x[2,12] x[2,13]
 x[2,14] x[2,15] x[2,16] x[3,1] x[3,2] x[3,3] x[3,4] x[3,5] x[3,6] x[3,7]
 x[3,8] x[3,9] x[3,10] x[3,11] x[3,12] x[3,13] x[3,14] x[3,15] x[3,16]
End
