data/mps_files/pEFS/56_3.mps
NAME foo
ROWS
 N  OBJ
 E  allocateEach[1]
 E  allocateEach[2]
 E  allocateEach[3]
 E  allocateEach[4]
 E  allocateEach[5]
 E  allocateEach[6]
 E  allocateEach[7]
 E  allocateEach[8]
 E  allocateEach[9]
 E  allocateEach[10]
 E  allocateEach[11]
 E  allocateEach[12]
 E  allocateEach[13]
 E  allocateEach[14]
 E  allocateEach[15]
 E  allocateEach[16]
 E  allocateAllCash
 G  findWorstP[1,2]
 G  findWorstP[1,3]
 G  findWorstP[2,1]
 G  findWorstP[2,3]
 G  findWorstP[3,1]
 G  findWorstP[3,2]
COLUMNS
    z         OBJ       1
    z         findWorstP[1,2]  1
    z         findWorstP[1,3]  1
    z         findWorstP[2,1]  1
    z         findWorstP[2,3]  1
    z         findWorstP[3,1]  1
    z         findWorstP[3,2]  1
    cashProportion[1]  allocateAllCash  1
    cashProportion[1]  findWorstP[1,2]  2.1982853374367995e-02
    cashProportion[1]  findWorstP[1,3]  2.1982853374367995e-02
    cashProportion[1]  findWorstP[2,1]  -2.0066419849702519e-02
    cashProportion[1]  findWorstP[3,1]  -2.3935756429742577e-02
    cashProportion[2]  allocateAllCash  1
    cashProportion[2]  findWorstP[1,2]  -2.1982853374367995e-02
    cashProportion[2]  findWorstP[2,1]  2.0066419849702519e-02
    cashProportion[2]  findWorstP[2,3]  2.0066419849702519e-02
    cashProportion[2]  findWorstP[3,2]  -2.3935756429742577e-02
    cashProportion[3]  allocateAllCash  1
    cashProportion[3]  findWorstP[1,3]  -2.1982853374367995e-02
    cashProportion[3]  findWorstP[2,3]  -2.0066419849702519e-02
    cashProportion[3]  findWorstP[3,1]  2.3935756429742577e-02
    cashProportion[3]  findWorstP[3,2]  2.3935756429742577e-02
    MARKER    'MARKER'                 'INTORG'
    x[1,1]    allocateEach[1]  1
    x[1,1]    findWorstP[1,2]  7.8918443613981093e-02
    x[1,1]    findWorstP[1,3]  7.8918443613981093e-02
    x[1,1]    findWorstP[2,1]  -6.6359650442966225e-02
    x[1,1]    findWorstP[3,1]  -7.2549277738549744e-02
    x[1,2]    allocateEach[2]  1
    x[1,2]    findWorstP[1,2]  1.0779292152121346e-01
    x[1,2]    findWorstP[1,3]  1.0779292152121346e-01
    x[1,2]    findWorstP[2,1]  -6.8707421565381427e-02
    x[1,2]    findWorstP[3,1]  -3.9625644769438834e-02
    x[1,3]    allocateEach[3]  1
    x[1,3]    findWorstP[1,2]  2.4609804352604969e-02
    x[1,3]    findWorstP[1,3]  2.4609804352604969e-02
    x[1,3]    findWorstP[2,1]  -7.4767480359991575e-02
    x[1,3]    findWorstP[3,1]  -2.9620498581806435e-02
    x[1,4]    allocateEach[4]  1
    x[1,4]    findWorstP[1,2]  6.7465377005935370e-02
    x[1,4]    findWorstP[1,3]  6.7465377005935370e-02
    x[1,4]    findWorstP[2,1]  -8.2111790024982714e-02
    x[1,4]    findWorstP[3,1]  -9.1255071388393560e-02
    x[1,5]    allocateEach[5]  1
    x[1,5]    findWorstP[1,2]  1.4761486040888108e-02
    x[1,5]    findWorstP[1,3]  1.4761486040888108e-02
    x[1,5]    findWorstP[2,1]  -2.2805486159186913e-02
    x[1,5]    findWorstP[3,1]  -9.3744390057086791e-02
    x[1,6]    allocateEach[6]  1
    x[1,6]    findWorstP[1,2]  3.1512420312156522e-02
    x[1,6]    findWorstP[1,3]  3.1512420312156522e-02
    x[1,6]    findWorstP[2,1]  -7.8680432230683578e-02
    x[1,6]    findWorstP[3,1]  -1.1979846093086157e-02
    x[1,7]    allocateEach[7]  1
    x[1,7]    findWorstP[1,2]  0.0537151022202682
    x[1,7]    findWorstP[1,3]  0.0537151022202682
    x[1,7]    findWorstP[2,1]  -8.6807332269813089e-02
    x[1,7]    findWorstP[3,1]  -3.7064518831456374e-02
    x[1,8]    allocateEach[8]  1
    x[1,8]    findWorstP[1,2]  6.4794460320949668e-02
    x[1,8]    findWorstP[1,3]  6.4794460320949668e-02
    x[1,8]    findWorstP[2,1]  -4.6975488868153593e-02
    x[1,8]    findWorstP[3,1]  -7.2118434122814379e-02
    x[1,9]    allocateEach[9]  1
    x[1,9]    findWorstP[1,2]  4.3350186854253681e-02
    x[1,9]    findWorstP[1,3]  4.3350186854253681e-02
    x[1,9]    findWorstP[2,1]  -8.4288996578675432e-02
    x[1,9]    findWorstP[3,1]  -1.0199025814713311e-01
    x[1,10]   allocateEach[10]  1
    x[1,10]   findWorstP[1,2]  8.6359639481204661e-02
    x[1,10]   findWorstP[1,3]  8.6359639481204661e-02
    x[1,10]   findWorstP[2,1]  -3.2658098305390848e-02
    x[1,10]   findWorstP[3,1]  -1.0378543987936380e-01
    x[1,11]   allocateEach[11]  1
    x[1,11]   findWorstP[1,2]  1.0209936249725214e-01
    x[1,11]   findWorstP[1,3]  1.0209936249725214e-01
    x[1,11]   findWorstP[2,1]  -4.3463865394455653e-02
    x[1,11]   findWorstP[3,1]  -1.4995751403233722e-02
    x[1,12]   allocateEach[12]  1
    x[1,12]   findWorstP[1,2]  2.2081776214552651e-02
    x[1,12]   findWorstP[1,3]  2.2081776214552651e-02
    x[1,12]   findWorstP[2,1]  -6.2025303755430479e-02
    x[1,12]   findWorstP[3,1]  -7.1352489917062611e-02
    x[1,13]   allocateEach[13]  1
    x[1,13]   findWorstP[1,2]  7.5324247087271937e-02
    x[1,13]   findWorstP[1,3]  7.5324247087271937e-02
    x[1,13]   findWorstP[2,1]  -3.3801884236823891e-02
    x[1,13]   findWorstP[3,1]  -2.6401139342006059e-02
    x[1,14]   allocateEach[14]  1
    x[1,14]   findWorstP[1,2]  3.8096284897779734e-02
    x[1,14]   findWorstP[1,3]  3.8096284897779734e-02
    x[1,14]   findWorstP[2,1]  -6.5908155996347931e-02
    x[1,14]   findWorstP[3,1]  -6.4638510238519825e-02
    x[1,15]   allocateEach[15]  1
    x[1,15]   findWorstP[1,2]  6.2035612222466480e-02
    x[1,15]   findWorstP[1,3]  6.2035612222466480e-02
    x[1,15]   findWorstP[2,1]  -9.4362339343226090e-02
    x[1,15]   findWorstP[3,1]  -1.0626279066984216e-01
    x[1,16]   allocateEach[16]  1
    x[1,16]   findWorstP[1,2]  1.0510002198285338e-01
    x[1,16]   findWorstP[1,3]  1.0510002198285338e-01
    x[1,16]   findWorstP[2,1]  -3.6209854618788194e-02
    x[1,16]   findWorstP[3,1]  -0.038680182390464
    x[2,1]    allocateEach[1]  1
    x[2,1]    findWorstP[1,2]  -7.8918443613981093e-02
    x[2,1]    findWorstP[2,1]  6.6359650442966225e-02
    x[2,1]    findWorstP[2,3]  6.6359650442966225e-02
    x[2,1]    findWorstP[3,2]  -7.2549277738549744e-02
    x[2,2]    allocateEach[2]  1
    x[2,2]    findWorstP[1,2]  -1.0779292152121346e-01
    x[2,2]    findWorstP[2,1]  6.8707421565381427e-02
    x[2,2]    findWorstP[2,3]  6.8707421565381427e-02
    x[2,2]    findWorstP[3,2]  -3.9625644769438834e-02
    x[2,3]    allocateEach[3]  1
    x[2,3]    findWorstP[1,2]  -2.4609804352604969e-02
    x[2,3]    findWorstP[2,1]  7.4767480359991575e-02
    x[2,3]    findWorstP[2,3]  7.4767480359991575e-02
    x[2,3]    findWorstP[3,2]  -2.9620498581806435e-02
    x[2,4]    allocateEach[4]  1
    x[2,4]    findWorstP[1,2]  -6.7465377005935370e-02
    x[2,4]    findWorstP[2,1]  8.2111790024982714e-02
    x[2,4]    findWorstP[2,3]  8.2111790024982714e-02
    x[2,4]    findWorstP[3,2]  -9.1255071388393560e-02
    x[2,5]    allocateEach[5]  1
    x[2,5]    findWorstP[1,2]  -1.4761486040888108e-02
    x[2,5]    findWorstP[2,1]  2.2805486159186913e-02
    x[2,5]    findWorstP[2,3]  2.2805486159186913e-02
    x[2,5]    findWorstP[3,2]  -9.3744390057086791e-02
    x[2,6]    allocateEach[6]  1
    x[2,6]    findWorstP[1,2]  -3.1512420312156522e-02
    x[2,6]    findWorstP[2,1]  7.8680432230683578e-02
    x[2,6]    findWorstP[2,3]  7.8680432230683578e-02
    x[2,6]    findWorstP[3,2]  -1.1979846093086157e-02
    x[2,7]    allocateEach[7]  1
    x[2,7]    findWorstP[1,2]  -0.0537151022202682
    x[2,7]    findWorstP[2,1]  8.6807332269813089e-02
    x[2,7]    findWorstP[2,3]  8.6807332269813089e-02
    x[2,7]    findWorstP[3,2]  -3.7064518831456374e-02
    x[2,8]    allocateEach[8]  1
    x[2,8]    findWorstP[1,2]  -6.4794460320949668e-02
    x[2,8]    findWorstP[2,1]  4.6975488868153593e-02
    x[2,8]    findWorstP[2,3]  4.6975488868153593e-02
    x[2,8]    findWorstP[3,2]  -7.2118434122814379e-02
    x[2,9]    allocateEach[9]  1
    x[2,9]    findWorstP[1,2]  -4.3350186854253681e-02
    x[2,9]    findWorstP[2,1]  8.4288996578675432e-02
    x[2,9]    findWorstP[2,3]  8.4288996578675432e-02
    x[2,9]    findWorstP[3,2]  -1.0199025814713311e-01
    x[2,10]   allocateEach[10]  1
    x[2,10]   findWorstP[1,2]  -8.6359639481204661e-02
    x[2,10]   findWorstP[2,1]  3.2658098305390848e-02
    x[2,10]   findWorstP[2,3]  3.2658098305390848e-02
    x[2,10]   findWorstP[3,2]  -1.0378543987936380e-01
    x[2,11]   allocateEach[11]  1
    x[2,11]   findWorstP[1,2]  -1.0209936249725214e-01
    x[2,11]   findWorstP[2,1]  4.3463865394455653e-02
    x[2,11]   findWorstP[2,3]  4.3463865394455653e-02
    x[2,11]   findWorstP[3,2]  -1.4995751403233722e-02
    x[2,12]   allocateEach[12]  1
    x[2,12]   findWorstP[1,2]  -2.2081776214552651e-02
    x[2,12]   findWorstP[2,1]  6.2025303755430479e-02
    x[2,12]   findWorstP[2,3]  6.2025303755430479e-02
    x[2,12]   findWorstP[3,2]  -7.1352489917062611e-02
    x[2,13]   allocateEach[13]  1
    x[2,13]   findWorstP[1,2]  -7.5324247087271937e-02
    x[2,13]   findWorstP[2,1]  3.3801884236823891e-02
    x[2,13]   findWorstP[2,3]  3.3801884236823891e-02
    x[2,13]   findWorstP[3,2]  -2.6401139342006059e-02
    x[2,14]   allocateEach[14]  1
    x[2,14]   findWorstP[1,2]  -3.8096284897779734e-02
    x[2,14]   findWorstP[2,1]  6.5908155996347931e-02
    x[2,14]   findWorstP[2,3]  6.5908155996347931e-02
    x[2,14]   findWorstP[3,2]  -6.4638510238519825e-02
    x[2,15]   allocateEach[15]  1
    x[2,15]   findWorstP[1,2]  -6.2035612222466480e-02
    x[2,15]   findWorstP[2,1]  9.4362339343226090e-02
    x[2,15]   findWorstP[2,3]  9.4362339343226090e-02
    x[2,15]   findWorstP[3,2]  -1.0626279066984216e-01
    x[2,16]   allocateEach[16]  1
    x[2,16]   findWorstP[1,2]  -1.0510002198285338e-01
    x[2,16]   findWorstP[2,1]  3.6209854618788194e-02
    x[2,16]   findWorstP[2,3]  3.6209854618788194e-02
    x[2,16]   findWorstP[3,2]  -0.038680182390464
    x[3,1]    allocateEach[1]  1
    x[3,1]    findWorstP[1,3]  -7.8918443613981093e-02
    x[3,1]    findWorstP[2,3]  -6.6359650442966225e-02
    x[3,1]    findWorstP[3,1]  7.2549277738549744e-02
    x[3,1]    findWorstP[3,2]  7.2549277738549744e-02
    x[3,2]    allocateEach[2]  1
    x[3,2]    findWorstP[1,3]  -1.0779292152121346e-01
    x[3,2]    findWorstP[2,3]  -6.8707421565381427e-02
    x[3,2]    findWorstP[3,1]  3.9625644769438834e-02
    x[3,2]    findWorstP[3,2]  3.9625644769438834e-02
    x[3,3]    allocateEach[3]  1
    x[3,3]    findWorstP[1,3]  -2.4609804352604969e-02
    x[3,3]    findWorstP[2,3]  -7.4767480359991575e-02
    x[3,3]    findWorstP[3,1]  2.9620498581806435e-02
    x[3,3]    findWorstP[3,2]  2.9620498581806435e-02
    x[3,4]    allocateEach[4]  1
    x[3,4]    findWorstP[1,3]  -6.7465377005935370e-02
    x[3,4]    findWorstP[2,3]  -8.2111790024982714e-02
    x[3,4]    findWorstP[3,1]  9.1255071388393560e-02
    x[3,4]    findWorstP[3,2]  9.1255071388393560e-02
    x[3,5]    allocateEach[5]  1
    x[3,5]    findWorstP[1,3]  -1.4761486040888108e-02
    x[3,5]    findWorstP[2,3]  -2.2805486159186913e-02
    x[3,5]    findWorstP[3,1]  9.3744390057086791e-02
    x[3,5]    findWorstP[3,2]  9.3744390057086791e-02
    x[3,6]    allocateEach[6]  1
    x[3,6]    findWorstP[1,3]  -3.1512420312156522e-02
    x[3,6]    findWorstP[2,3]  -7.8680432230683578e-02
    x[3,6]    findWorstP[3,1]  1.1979846093086157e-02
    x[3,6]    findWorstP[3,2]  1.1979846093086157e-02
    x[3,7]    allocateEach[7]  1
    x[3,7]    findWorstP[1,3]  -0.0537151022202682
    x[3,7]    findWorstP[2,3]  -8.6807332269813089e-02
    x[3,7]    findWorstP[3,1]  3.7064518831456374e-02
    x[3,7]    findWorstP[3,2]  3.7064518831456374e-02
    x[3,8]    allocateEach[8]  1
    x[3,8]    findWorstP[1,3]  -6.4794460320949668e-02
    x[3,8]    findWorstP[2,3]  -4.6975488868153593e-02
    x[3,8]    findWorstP[3,1]  7.2118434122814379e-02
    x[3,8]    findWorstP[3,2]  7.2118434122814379e-02
    x[3,9]    allocateEach[9]  1
    x[3,9]    findWorstP[1,3]  -4.3350186854253681e-02
    x[3,9]    findWorstP[2,3]  -8.4288996578675432e-02
    x[3,9]    findWorstP[3,1]  1.0199025814713311e-01
    x[3,9]    findWorstP[3,2]  1.0199025814713311e-01
    x[3,10]   allocateEach[10]  1
    x[3,10]   findWorstP[1,3]  -8.6359639481204661e-02
    x[3,10]   findWorstP[2,3]  -3.2658098305390848e-02
    x[3,10]   findWorstP[3,1]  1.0378543987936380e-01
    x[3,10]   findWorstP[3,2]  1.0378543987936380e-01
    x[3,11]   allocateEach[11]  1
    x[3,11]   findWorstP[1,3]  -1.0209936249725214e-01
    x[3,11]   findWorstP[2,3]  -4.3463865394455653e-02
    x[3,11]   findWorstP[3,1]  1.4995751403233722e-02
    x[3,11]   findWorstP[3,2]  1.4995751403233722e-02
    x[3,12]   allocateEach[12]  1
    x[3,12]   findWorstP[1,3]  -2.2081776214552651e-02
    x[3,12]   findWorstP[2,3]  -6.2025303755430479e-02
    x[3,12]   findWorstP[3,1]  7.1352489917062611e-02
    x[3,12]   findWorstP[3,2]  7.1352489917062611e-02
    x[3,13]   allocateEach[13]  1
    x[3,13]   findWorstP[1,3]  -7.5324247087271937e-02
    x[3,13]   findWorstP[2,3]  -3.3801884236823891e-02
    x[3,13]   findWorstP[3,1]  2.6401139342006059e-02
    x[3,13]   findWorstP[3,2]  2.6401139342006059e-02
    x[3,14]   allocateEach[14]  1
    x[3,14]   findWorstP[1,3]  -3.8096284897779734e-02
    x[3,14]   findWorstP[2,3]  -6.5908155996347931e-02
    x[3,14]   findWorstP[3,1]  6.4638510238519825e-02
    x[3,14]   findWorstP[3,2]  6.4638510238519825e-02
    x[3,15]   allocateEach[15]  1
    x[3,15]   findWorstP[1,3]  -6.2035612222466480e-02
    x[3,15]   findWorstP[2,3]  -9.4362339343226090e-02
    x[3,15]   findWorstP[3,1]  1.0626279066984216e-01
    x[3,15]   findWorstP[3,2]  1.0626279066984216e-01
    x[3,16]   allocateEach[16]  1
    x[3,16]   findWorstP[1,3]  -1.0510002198285338e-01
    x[3,16]   findWorstP[2,3]  -3.6209854618788194e-02
    x[3,16]   findWorstP[3,1]  0.038680182390464
    x[3,16]   findWorstP[3,2]  0.038680182390464
    MARKER    'MARKER'                 'INTEND'
RHS
    RHS1      allocateEach[1]  1
    RHS1      allocateEach[2]  1
    RHS1      allocateEach[3]  1
    RHS1      allocateEach[4]  1
    RHS1      allocateEach[5]  1
    RHS1      allocateEach[6]  1
    RHS1      allocateEach[7]  1
    RHS1      allocateEach[8]  1
    RHS1      allocateEach[9]  1
    RHS1      allocateEach[10]  1
    RHS1      allocateEach[11]  1
    RHS1      allocateEach[12]  1
    RHS1      allocateEach[13]  1
    RHS1      allocateEach[14]  1
    RHS1      allocateEach[15]  1
    RHS1      allocateEach[16]  1
    RHS1      allocateAllCash  1
BOUNDS
 UP BND1      z         1
 MI BND1      cashProportion[1]
 UP BND1      cashProportion[1]  1
 MI BND1      cashProportion[2]
 UP BND1      cashProportion[2]  1
 MI BND1      cashProportion[3]
 UP BND1      cashProportion[3]  1
 BV BND1      x[1,1]  
 BV BND1      x[1,2]  
 BV BND1      x[1,3]  
 BV BND1      x[1,4]  
 BV BND1      x[1,5]  
 BV BND1      x[1,6]  
 BV BND1      x[1,7]  
 BV BND1      x[1,8]  
 BV BND1      x[1,9]  
 BV BND1      x[1,10] 
 BV BND1      x[1,11] 
 BV BND1      x[1,12] 
 BV BND1      x[1,13] 
 BV BND1      x[1,14] 
 BV BND1      x[1,15] 
 BV BND1      x[1,16] 
 BV BND1      x[2,1]  
 BV BND1      x[2,2]  
 BV BND1      x[2,3]  
 BV BND1      x[2,4]  
 BV BND1      x[2,5]  
 BV BND1      x[2,6]  
 BV BND1      x[2,7]  
 BV BND1      x[2,8]  
 BV BND1      x[2,9]  
 BV BND1      x[2,10] 
 BV BND1      x[2,11] 
 BV BND1      x[2,12] 
 BV BND1      x[2,13] 
 BV BND1      x[2,14] 
 BV BND1      x[2,15] 
 BV BND1      x[2,16] 
 BV BND1      x[3,1]  
 BV BND1      x[3,2]  
 BV BND1      x[3,3]  
 BV BND1      x[3,4]  
 BV BND1      x[3,5]  
 BV BND1      x[3,6]  
 BV BND1      x[3,7]  
 BV BND1      x[3,8]  
 BV BND1      x[3,9]  
 BV BND1      x[3,10] 
 BV BND1      x[3,11] 
 BV BND1      x[3,12] 
 BV BND1      x[3,13] 
 BV BND1      x[3,14] 
 BV BND1      x[3,15] 
 BV BND1      x[3,16] 
ENDATA
